246	42	4	161	
14	12	14	15

0	0	0	0	0	0	2	1	2
1	0	0	8	7	5	1	3
2	0	0	5	7	5	1	4
3	0	10	0	0	5	1	6
4	9	3	0	2	10	1	5
5	4	2	10	5	5	1	12
6	0	5	0	0	2	1	7
7	8	0	0	0	9	1	8
8	2	0	7	5	4	1	9
9	0	0	7	0	2	2	10	12
10	9	4	0	0	3	1	11
11	3	0	0	0	10	1	13
12	3	2	7	0	10	1	14
13	10	0	1	0	9	1	16
14	8	6	4	9	9	1	15
15	0	1	0	8	9	1	17
16	2	0	9	0	6	1	21
17	0	0	4	0	8	1	18
18	3	0	0	0	8	1	19
19	0	5	0	6	5	1	20
20	1	10	0	0	3	1	22
21	0	0	0	7	4	1	28
22	10	8	0	0	7	1	23
23	0	7	0	0	10	1	24
24	0	0	5	0	6	1	25
25	7	8	2	0	3	1	26
26	1	1	0	0	7	2	27	32
27	5	8	0	0	5	1	29
28	0	8	2	2	4	1	31
29	4	8	6	10	5	1	30
30	9	10	3	5	6	1	36
31	0	0	0	7	8	1	32
32	0	0	5	5	9	1	33
33	7	0	0	10	2	1	34
34	8	0	0	0	5	1	35
35	0	0	8	4	4	1	37
36	0	10	9	6	8	1	40
37	0	0	4	0	8	1	38
38	0	0	0	1	10	1	39
39	0	4	1	8	3	1	41
40	0	0	0	6	5	1	41
41	0	0	0	0	0	0
